3387
3569
3052
3801
3406
3169
2678
2055
1326
2894
675
1844
3709
916
3605
1603
2551
2762
1142
1209
1813
1335
1451
694
2220
1003
2602
1709
1788
687
1432
2405
1823
1530
1645
466
1291
2251
3031
1035
543
2956
2741
2013
1362
1194
3160
2965
839
1039

31494
30841
23316
30624
28884
30537
19183
15747
11397
23707
609
15181
29319
2479
30841

724
709
536
704
664
702
441
362
262
545
14
349
674
57
709

1490.4

148
145
110
144
136
144
90
74
54
112
3
72
138
12
145
66
115
127
45
39
65
34
63
17
89
15
103
62
86
10
26
114
90
70
67
5
23
99
111
8
2
98
113
53
19
54
113
144
37
21
